
Gurobi 12.0.2 (win64) logging started Thu Jun  5 10:49:12 2025

Set parameter LogFile to value "C:\Ioana\_uni\honours\slp\algorithm\Main_files\results\others\prox_tubules\Task_010_Sample001_irr_gurobi.log"
Gurobi Optimizer version 12.0.2 build v12.0.2rc0 (win64 - Windows 11.0 (26100.2))

CPU model: Intel(R) Core(TM) Ultra 5 125H, instruction set [SSE2|AVX|AVX2]
Thread count: 14 physical cores, 18 logical processors, using up to 18 threads

Non-default parameters:
TimeLimit  2200

Optimize a model with 47658 rows, 34801 columns and 147848 nonzeros
Model fingerprint: 0x9eeae85f
Variable types: 17407 continuous, 17394 integer (17394 binary)
Coefficient statistics:
  Matrix range     [1e-04, 8e+04]
  Objective range  [1e-04, 1e+01]
  Bounds range     [1e+00, 1e+03]
  RHS range        [1e+00, 1e+00]
Presolve removed 31210 rows and 21841 columns
Presolve time: 0.31s
Presolved: 16448 rows, 12960 columns, 54672 nonzeros
Variable types: 6414 continuous, 6546 integer (6546 binary)

Root relaxation: objective 1.147647e-04, 1554 iterations, 0.07 seconds (0.17 work units)

    Nodes    |    Current Node    |     Objective Bounds      |     Work
 Expl Unexpl |  Obj  Depth IntInf | Incumbent    BestBd   Gap | It/Node Time

     0     0    0.00011    0    9          -    0.00011      -     -    0s
H    0     0                       0.1147647    0.00011   100%     -    0s
     0     0    0.07656    0   14    0.11476    0.07656  33.3%     -    0s

Explored 1 nodes (1764 simplex iterations) in 0.67 seconds (0.76 work units)
Thread count was 18 (of 18 available processors)

Solution count 1: 0.114765 

Optimal solution found (tolerance 1.00e-04)
Best objective 1.147647487051e-01, best bound 1.147647487051e-01, gap 0.0000%
